problems/GracefulWheelGraphs/GracefulWheelGraphs-models/compact/O2/lingeling/model-n13-solution000001.solution
language Essence 1.3

letting colouring be
        function(0 --> 25, 1 --> 8, 2 --> 16, 3 --> 4, 4 --> 0, 5 --> 7, 6 --> 5, 7 --> 20, 8 --> 6, 9 --> 1, 10 --> 10,
                 11 --> 13, 12 --> 2, 13 --> 26)
letting edgeID be
        function(0 --> 17, 1 --> 8, 2 --> 12, 3 --> 4, 4 --> 7, 5 --> 2, 6 --> 15, 7 --> 14, 8 --> 5, 9 --> 9, 10 --> 3,
                 11 --> 11, 12 --> 23, 13 --> 1, 14 --> 18, 15 --> 10, 16 --> 22, 17 --> 26, 18 --> 19, 19 --> 21,
                 20 --> 6, 21 --> 20, 22 --> 25, 23 --> 16, 24 --> 13, 25 --> 24)
